#Flow Problem
param d := 0.05; 
param n := 20; 
param radius := 2.00; 
param v0 := 
1 5.00
2 5.00
3 5.00
4 5.00
5 5.00
6 5.00
7 5.00
8 5.00
9 5.00
10 5.00
11 5.00
12 5.00
13 5.00
14 5.00
15 5.00
16 5.00
17 5.00
18 5.00
19 5.00
20 5.00
;
param cap := 
1 3.14159
2 3.14159
3 3.14159
4 3.14159
5 3.14159
6 3.14159
7 3.14159
8 3.14159
9 3.14159
10 3.14159
11 3.66519
12 3.66519
13 3.66519
14 3.66519
15 3.66519
16 3.66519
17 3.66519
18 3.66519
19 3.66519
20 3.66519
;
param x0 := 
1 2.00000
2 1.85000
3 1.70000
4 1.55000
5 1.40000
6 1.25000
7 1.10000
8 0.95000
9 0.80000
10 0.65000
11 1.73205
12 1.60215
13 1.47224
14 1.34234
15 1.21244
16 1.08253
17 0.95263
18 0.82272
19 0.69282
20 0.56292
;
param y0 := 
1 0.00000
2 0.00000
3 0.00000
4 0.00000
5 0.00000
6 0.00000
7 0.00000
8 0.00000
9 0.00000
10 0.00000
11 1.00000
12 0.92500
13 0.85000
14 0.77500
15 0.70000
16 0.62500
17 0.55000
18 0.47500
19 0.40000
20 0.32500
;